NAME: PointSet_Angle_35_8
TYPE: TSP
COMMENT: Points chosen discrete uniformly at random out of ${0, \ldots, 500}^2$.
DIMENSION: 35
EDGE_WEIGHT_TYPE: EUC_2D
NODE_COORD_SECTION
1 339 347
2 135 447
3 348 25
4 74 167
5 197 61
6 417 318
7 456 394
8 41 121
9 323 62
10 247 118
11 87 108
12 99 305
13 477 163
14 43 44
15 108 463
16 106 193
17 55 242
18 140 404
19 13 461
20 317 457
21 22 233
22 20 478
23 374 61
24 345 196
25 370 339
26 60 458
27 447 159
28 8 169
29 68 298
30 213 424
31 260 319
32 116 316
33 307 256
34 466 66
35 217 282
EOF
